p cnf 137 413
c t mc
1 2 -3 0
-1 -2 -3 0
1 -2 3 0
-1 2 3 0
-6 4 0
-6 -5 0
-4 5 6 0
8 6 0
8 -7 0
-6 7 -8 0
-9 10 -11 0
9 -10 -11 0
-9 -10 11 0
9 10 11 0
-13 -11 0
-13 -12 0
11 12 13 0
-14 8 0
-14 13 0
-8 -13 14 0
16 14 0
16 -15 0
-14 15 -16 0
-3 16 -17 0
3 -16 -17 0
-3 -16 17 0
3 16 17 0
19 18 0
19 11 0
-18 -11 -19 0
4 19 -20 0
-4 -19 -20 0
4 -19 20 0
-4 19 20 0
23 21 0
23 22 0
-21 -22 -23 0
-24 -3 -25 0
24 3 -25 0
-24 3 25 0
24 -3 25 0
-27 -26 0
-27 -22 0
26 22 27 0
28 -25 0
28 27 0
25 -27 -28 0
-29 -23 0
-29 28 0
23 -28 29 0
31 -7 0
31 30 0
7 -30 -31 0
32 29 0
32 -31 0
-29 31 -32 0
33 20 0
33 -32 0
-20 32 -33 0
35 34 0
35 26 0
-34 -26 -35 0
36 11 0
36 26 0
-11 -26 -36 0
37 35 0
37 36 0
-35 -36 -37 0
38 33 0
38 37 0
-33 -37 -38 0
-40 2 0
-40 -39 0
-2 39 40 0
38 -40 -41 0
-38 40 -41 0
38 40 41 0
-38 -40 41 0
-42 -3 0
-42 10 0
3 -10 42 0
43 2 0
43 22 0
-2 -22 -43 0
45 1 0
45 44 0
-1 -44 -45 0
43 -45 -46 0
-43 45 -46 0
43 45 46 0
-43 -45 46 0
47 -42 0
47 -46 0
42 46 -47 0
-25 10 -48 0
25 -10 -48 0
-25 -10 48 0
25 10 48 0
-49 47 0
-49 48 0
-47 -48 49 0
41 49 -50 0
-41 -49 -50 0
41 -49 50 0
-41 49 50 0
-53 -35 0
-53 -52 0
35 52 53 0
54 -51 0
54 53 0
51 -53 -54 0
-57 56 0
-57 21 0
-56 -21 57 0
58 -55 0
58 57 0
55 -57 -58 0
-60 -21 0
-60 -59 0
21 59 60 0
-51 60 -61 0
51 -60 -61 0
-51 -60 61 0
51 60 61 0
57 61 -62 0
-57 -61 -62 0
57 -61 62 0
-57 61 62 0
-63 -62 0
-63 62 0
64 -58 0
64 -63 0
58 63 -64 0
-65 -12 0
-65 26 0
12 -26 65 0
10 45 -66 0
-10 -45 -66 0
10 -45 66 0
-10 45 66 0
-67 66 0
-67 -8 0
-66 8 67 0
-69 -15 0
-69 -68 0
15 68 69 0
-67 -69 -70 0
67 69 -70 0
-67 69 70 0
67 -69 70 0
71 65 0
71 70 0
-65 -70 -71 0
-73 -72 0
-73 3 0
72 -3 73 0
-7 73 -74 0
7 -73 -74 0
-7 -73 74 0
7 73 74 0
-75 74 0
-75 19 0
-74 -19 75 0
-77 59 0
-77 76 0
-59 -76 77 0
78 75 0
78 -77 0
-75 77 -78 0
-71 -78 -79 0
71 78 -79 0
-71 78 79 0
71 -78 79 0
80 64 0
80 -79 0
-64 79 -80 0
-81 54 0
-81 -80 0
-54 80 81 0
55 -26 -82 0
-55 26 -82 0
55 26 82 0
-55 -26 82 0
-15 -82 -83 0
15 82 -83 0
-15 82 83 0
15 -82 83 0
-84 -12 -85 0
84 12 -85 0
-84 12 85 0
84 -12 85 0
-85 -60 -86 0
85 60 -86 0
-85 60 86 0
85 -60 86 0
-87 24 0
-87 86 0
-24 -86 87 0
-16 86 -88 0
16 -86 -88 0
-16 -86 88 0
16 86 88 0
-89 -87 0
-89 88 0
87 -88 89 0
90 83 0
90 -89 0
-83 89 -90 0
-91 -85 0
-91 -30 0
85 30 91 0
-92 7 0
-92 84 0
-7 -84 92 0
-19 -56 -93 0
19 56 -93 0
-19 56 93 0
19 -56 93 0
-51 -93 -94 0
51 93 -94 0
-51 93 94 0
51 -93 94 0
-95 94 0
-95 15 0
-94 -15 95 0
95 -35 -96 0
-95 35 -96 0
95 35 96 0
-95 -35 96 0
97 -92 0
97 -96 0
92 96 -97 0
98 -91 0
98 -97 0
91 97 -98 0
-99 -90 0
-99 -98 0
90 98 99 0
1 -59 -100 0
-1 59 -100 0
1 59 100 0
-1 -59 100 0
-101 -3 0
-101 -51 0
3 51 101 0
-102 -76 0
-102 101 0
76 -101 102 0
-103 100 0
-103 -102 0
-100 102 103 0
-13 104 -105 0
13 -104 -105 0
-13 -104 105 0
13 104 105 0
-106 105 0
-106 -92 0
-105 92 106 0
107 -25 0
107 55 0
25 -55 -107 0
108 -107 0
108 57 0
107 -57 -108 0
-106 -108 -109 0
106 108 -109 0
-106 108 109 0
106 -108 109 0
110 -103 0
110 -109 0
103 109 -110 0
99 -110 -111 0
-99 110 -111 0
99 110 111 0
-99 -110 111 0
-113 101 0
-113 112 0
-101 -112 113 0
114 6 0
114 44 0
-6 -44 -114 0
115 113 0
115 114 0
-113 -114 -115 0
116 -111 0
116 115 0
111 -115 -116 0
-117 81 0
-117 116 0
-81 -116 117 0
118 7 0
118 -84 0
-7 84 -118 0
-117 -118 -119 0
117 118 -119 0
-117 118 119 0
117 -118 119 0
120 -105 0
120 45 0
105 -45 -120 0
121 119 0
121 -120 0
-119 120 -121 0
68 -72 -122 0
-68 72 -122 0
68 72 122 0
-68 -72 122 0
123 -122 0
123 21 0
122 -21 -123 0
124 24 0
124 -45 0
-24 45 -124 0
-125 -124 0
-125 3 0
124 -3 125 0
126 -125 0
126 -34 0
125 34 -126 0
128 126 0
128 127 0
-126 -127 -128 0
-129 123 0
-129 128 0
-123 -128 129 0
4 122 -130 0
-4 -122 -130 0
4 -122 130 0
-4 122 130 0
-93 -13 -131 0
93 13 -131 0
-93 13 131 0
93 -13 131 0
-132 -125 0
-132 -131 0
125 131 132 0
-133 130 0
-133 132 0
-130 -132 133 0
129 133 -134 0
-129 -133 -134 0
129 -133 134 0
-129 133 134 0
135 121 0
135 134 0
-121 -134 -135 0
136 -50 0
136 -135 0
50 135 -136 0
137 17 0
137 -136 0
-17 136 -137 0
43 -14 -120 99 -101 0
-108 -62 -1 -79 33 118 74 0
45 7 69 -134 126 50 -123 2 0
-29 99 -22 81 15 0
27 118 -113 -57 22 -91 -23 0
23 54 -114 73 -9 -47 0
28 52 -7 17 -25 81 -39 51 131 -6 0
99 -53 113 114 -118 -117 0
57 128 15 0
19 117 -15 -122 63 -35 -77 47 -85 109 0
30 10 68 -124 -34 49 122 29 109 0
-5 -99 49 -42 44 0
-103 -9 122 123 34 -38 -90 22 0
-101 34 40 125 122 -80 8 30 0
-81 -121 69 43 -85 16 61 -23 0
-111 -71 26 -68 85 -75 0
-48 6 -111 133 -117 -106 -125 12 0
17 -84 22 0
66 -109 113 -126 90 33 -131 -12 0
25 85 -50 119 -18 124 -107 -11 0
131 7 70 -32 0
-134 -82 -15 108 -89 -66 16 -7 0
-57 -49 27 124 -89 -8 -26 -56 -116 93 0
95 -55 -131 2 -50 -59 0
-74 -57 41 50 -13 0
-125 52 -10 -87 -48 -104 0
-75 10 -125 0
67 114 -22 77 -40 126 0
-110 120 -53 -47 -21 -127 124 -79 75 0
-99 73 5 -94 -63 74 0
63 -131 -128 -116 113 -25 -29 0
-115 -22 -108 -51 0
-20 -108 122 51 16 -9 -129 -30 95 -137 0
-5 -22 34 106 0
59 -120 -50 0
-94 -30 -67 58 0
-59 96 78 108 -92 35 132 -98 -49 0
76 -10 42 89 19 39 18 0
5 -101 65 -109 37 88 43 0
124 41 -29 50 -69 -108 1 131 -62 0
12 75 52 -34 -67 0
-20 -136 -31 126 50 -69 49 103 -19 0
24 92 90 -134 130 0
74 7 79 19 -99 42 104 0
-8 119 4 0
-137 -26 -106 75 125 102 -23 -20 0
-66 29 -38 -120 -20 -127 -21 78 117 74 0
127 -7 -113 -110 61 -84 0
-119 128 -30 0
-92 3 64 117 0
-102 17 -64 -129 0
-66 -80 -123 -1 6 112 -84 22 0
-61 131 75 122 -57 -135 132 -51 -80 59 0
-119 -103 -109 67 129 0
-117 -93 -32 -52 58 -48 -82 -38 -85 0
100 -82 -81 -137 15 -34 55 114 -38 0
-106 -127 38 0
69 -49 -86 0
-18 -98 -59 70 -49 96 -6 0
-69 -20 -66 43 0
137 0
